logs/full/max/full-05-30-1.lp
\ LP format - for model browsing. Use MPS format to capture full model detail.
Maximize
  x0,1_5 + x0,1_19 + x0,1_22 + x0,1_24 + x0,1_29 + x0,1_41 + x0,1_46
   + x0,1_48 + x0,1_70 + x0,2_5 + x0,2_19 + x0,2_22 + x0,2_24 + x0,2_29
   + x0,2_41 + x0,2_46 + x0,2_48 + x0,2_70 + x0,3_5 + x0,3_19 + x0,3_22
   + x0,3_24 + x0,3_29 + x0,3_41 + x0,3_46 + x0,3_48 + x0,3_70 + x0,4_5
   + x0,4_19 + x0,4_22 + x0,4_24 + x0,4_29 + x0,4_41 + x0,4_46 + x0,4_48
   + x0,4_70 + x0,5_5 + x0,5_19 + x0,5_22 + x0,5_24 + x0,5_29 + x0,5_41
   + x0,5_46 + x0,5_48 + x0,5_70 + x1,2_5 + x1,2_19 + x1,2_22 + x1,2_24
   + x1,2_29 + x1,2_41 + x1,2_46 + x1,2_48 + x1,2_70 + x1,3_5 + x1,3_19
   + x1,3_22 + x1,3_24 + x1,3_29 + x1,3_41 + x1,3_46 + x1,3_48 + x1,3_70
   + x1,4_5 + x1,4_19 + x1,4_22 + x1,4_24 + x1,4_29 + x1,4_41 + x1,4_46
   + x1,4_48 + x1,4_70 + x1,5_5 + x1,5_19 + x1,5_22 + x1,5_24 + x1,5_29
   + x1,5_41 + x1,5_46 + x1,5_48 + x1,5_70 + x2,3_5 + x2,3_19 + x2,3_22
   + x2,3_24 + x2,3_29 + x2,3_41 + x2,3_46 + x2,3_48 + x2,3_70 + x2,4_5
   + x2,4_19 + x2,4_22 + x2,4_24 + x2,4_29 + x2,4_41 + x2,4_46 + x2,4_48
   + x2,4_70 + x2,5_5 + x2,5_19 + x2,5_22 + x2,5_24 + x2,5_29 + x2,5_41
   + x2,5_46 + x2,5_48 + x2,5_70 + x3,4_5 + x3,4_19 + x3,4_22 + x3,4_24
   + x3,4_29 + x3,4_41 + x3,4_46 + x3,4_48 + x3,4_70 + x3,5_5 + x3,5_19
   + x3,5_22 + x3,5_24 + x3,5_29 + x3,5_41 + x3,5_46 + x3,5_48 + x3,5_70
   + x4,5_5 + x4,5_19 + x4,5_22 + x4,5_24 + x4,5_29 + x4,5_41 + x4,5_46
   + x4,5_48 + x4,5_70
Subject To
 R0: x0,1_5 + x0,2_5 + x0,3_5 + x0,4_5 + x0,5_5 + x1,2_5 + x1,3_5 + x1,4_5
   + x1,5_5 + x2,3_5 + x2,4_5 + x2,5_5 + x3,4_5 + x3,5_5 + x4,5_5 <= 1
 R1: x0,1_19 + x0,2_19 + x0,3_19 + x0,4_19 + x0,5_19 + x1,2_19 + x1,3_19
   + x1,4_19 + x1,5_19 + x2,3_19 + x2,4_19 + x2,5_19 + x3,4_19 + x3,5_19
   + x4,5_19 <= 1
 R2: x0,1_22 + x0,2_22 + x0,3_22 + x0,4_22 + x0,5_22 + x1,2_22 + x1,3_22
   + x1,4_22 + x1,5_22 + x2,3_22 + x2,4_22 + x2,5_22 + x3,4_22 + x3,5_22
   + x4,5_22 <= 1
 R3: x0,1_24 + x0,2_24 + x0,3_24 + x0,4_24 + x0,5_24 + x1,2_24 + x1,3_24
   + x1,4_24 + x1,5_24 + x2,3_24 + x2,4_24 + x2,5_24 + x3,4_24 + x3,5_24
   + x4,5_24 <= 2
 R4: x0,1_29 + x0,2_29 + x0,3_29 + x0,4_29 + x0,5_29 + x1,2_29 + x1,3_29
   + x1,4_29 + x1,5_29 + x2,3_29 + x2,4_29 + x2,5_29 + x3,4_29 + x3,5_29
   + x4,5_29 <= 1
 R5: x0,1_41 + x0,2_41 + x0,3_41 + x0,4_41 + x0,5_41 + x1,2_41 + x1,3_41
   + x1,4_41 + x1,5_41 + x2,3_41 + x2,4_41 + x2,5_41 + x3,4_41 + x3,5_41
   + x4,5_41 <= 1
 R6: x0,1_46 + x0,2_46 + x0,3_46 + x0,4_46 + x0,5_46 + x1,2_46 + x1,3_46
   + x1,4_46 + x1,5_46 + x2,3_46 + x2,4_46 + x2,5_46 + x3,4_46 + x3,5_46
   + x4,5_46 <= 1
 R7: x0,1_48 + x0,2_48 + x0,3_48 + x0,4_48 + x0,5_48 + x1,2_48 + x1,3_48
   + x1,4_48 + x1,5_48 + x2,3_48 + x2,4_48 + x2,5_48 + x3,4_48 + x3,5_48
   + x4,5_48 <= 1
 R8: x0,1_70 + x0,2_70 + x0,3_70 + x0,4_70 + x0,5_70 + x1,2_70 + x1,3_70
   + x1,4_70 + x1,5_70 + x2,3_70 + x2,4_70 + x2,5_70 + x3,4_70 + x3,5_70
   + x4,5_70 <= 1
 R9: x0,1_5 + x0,1_19 + x0,1_22 + x0,1_24 + x0,1_29 + x0,1_41 + x0,1_46
   + x0,1_48 + x0,1_70 <= 1
 R10: x0,2_5 + x0,2_19 + x0,2_22 + x0,2_24 + x0,2_29 + x0,2_41 + x0,2_46
   + x0,2_48 + x0,2_70 <= 1
 R11: x0,3_5 + x0,3_19 + x0,3_22 + x0,3_24 + x0,3_29 + x0,3_41 + x0,3_46
   + x0,3_48 + x0,3_70 <= 1
 R12: x0,4_5 + x0,4_19 + x0,4_22 + x0,4_24 + x0,4_29 + x0,4_41 + x0,4_46
   + x0,4_48 + x0,4_70 <= 1
 R13: x0,5_5 + x0,5_19 + x0,5_22 + x0,5_24 + x0,5_29 + x0,5_41 + x0,5_46
   + x0,5_48 + x0,5_70 <= 1
 R14: x1,2_5 + x1,2_19 + x1,2_22 + x1,2_24 + x1,2_29 + x1,2_41 + x1,2_46
   + x1,2_48 + x1,2_70 <= 1
 R15: x1,3_5 + x1,3_19 + x1,3_22 + x1,3_24 + x1,3_29 + x1,3_41 + x1,3_46
   + x1,3_48 + x1,3_70 <= 1
 R16: x1,4_5 + x1,4_19 + x1,4_22 + x1,4_24 + x1,4_29 + x1,4_41 + x1,4_46
   + x1,4_48 + x1,4_70 <= 1
 R17: x1,5_5 + x1,5_19 + x1,5_22 + x1,5_24 + x1,5_29 + x1,5_41 + x1,5_46
   + x1,5_48 + x1,5_70 <= 1
 R18: x2,3_5 + x2,3_19 + x2,3_22 + x2,3_24 + x2,3_29 + x2,3_41 + x2,3_46
   + x2,3_48 + x2,3_70 <= 1
 R19: x2,4_5 + x2,4_19 + x2,4_22 + x2,4_24 + x2,4_29 + x2,4_41 + x2,4_46
   + x2,4_48 + x2,4_70 <= 1
 R20: x2,5_5 + x2,5_19 + x2,5_22 + x2,5_24 + x2,5_29 + x2,5_41 + x2,5_46
   + x2,5_48 + x2,5_70 <= 1
 R21: x3,4_5 + x3,4_19 + x3,4_22 + x3,4_24 + x3,4_29 + x3,4_41 + x3,4_46
   + x3,4_48 + x3,4_70 <= 1
 R22: x3,5_5 + x3,5_19 + x3,5_22 + x3,5_24 + x3,5_29 + x3,5_41 + x3,5_46
   + x3,5_48 + x3,5_70 <= 1
 R23: x4,5_5 + x4,5_19 + x4,5_22 + x4,5_24 + x4,5_29 + x4,5_41 + x4,5_46
   + x4,5_48 + x4,5_70 <= 1
 R24: p0 - p1 <= -1
 R25: - 5 x0,1_5 - p0 + p1 >= 0
 R26: 328 x0,1_5 - p0 + p1 <= 333
 R27: - 19 x0,1_19 - p0 + p1 >= 0
 R28: 328 x0,1_19 - p0 + p1 <= 347
 R29: - 22 x0,1_22 - p0 + p1 >= 0
 R30: 328 x0,1_22 - p0 + p1 <= 350
 R31: - 24 x0,1_24 - p0 + p1 >= 0
 R32: 328 x0,1_24 - p0 + p1 <= 352
 R33: - 29 x0,1_29 - p0 + p1 >= 0
 R34: 328 x0,1_29 - p0 + p1 <= 357
 R35: - 41 x0,1_41 - p0 + p1 >= 0
 R36: 328 x0,1_41 - p0 + p1 <= 369
 R37: - 46 x0,1_46 - p0 + p1 >= 0
 R38: 328 x0,1_46 - p0 + p1 <= 374
 R39: - 48 x0,1_48 - p0 + p1 >= 0
 R40: 328 x0,1_48 - p0 + p1 <= 376
 R41: - 70 x0,1_70 - p0 + p1 >= 0
 R42: 328 x0,1_70 - p0 + p1 <= 398
 R43: p0 - p2 <= -1
 R44: - 5 x0,2_5 - p0 + p2 >= 0
 R45: 328 x0,2_5 - p0 + p2 <= 333
 R46: - 19 x0,2_19 - p0 + p2 >= 0
 R47: 328 x0,2_19 - p0 + p2 <= 347
 R48: - 22 x0,2_22 - p0 + p2 >= 0
 R49: 328 x0,2_22 - p0 + p2 <= 350
 R50: - 24 x0,2_24 - p0 + p2 >= 0
 R51: 328 x0,2_24 - p0 + p2 <= 352
 R52: - 29 x0,2_29 - p0 + p2 >= 0
 R53: 328 x0,2_29 - p0 + p2 <= 357
 R54: - 41 x0,2_41 - p0 + p2 >= 0
 R55: 328 x0,2_41 - p0 + p2 <= 369
 R56: - 46 x0,2_46 - p0 + p2 >= 0
 R57: 328 x0,2_46 - p0 + p2 <= 374
 R58: - 48 x0,2_48 - p0 + p2 >= 0
 R59: 328 x0,2_48 - p0 + p2 <= 376
 R60: - 70 x0,2_70 - p0 + p2 >= 0
 R61: 328 x0,2_70 - p0 + p2 <= 398
 R62: p0 - p3 <= -1
 R63: - 5 x0,3_5 - p0 + p3 >= 0
 R64: 328 x0,3_5 - p0 + p3 <= 333
 R65: - 19 x0,3_19 - p0 + p3 >= 0
 R66: 328 x0,3_19 - p0 + p3 <= 347
 R67: - 22 x0,3_22 - p0 + p3 >= 0
 R68: 328 x0,3_22 - p0 + p3 <= 350
 R69: - 24 x0,3_24 - p0 + p3 >= 0
 R70: 328 x0,3_24 - p0 + p3 <= 352
 R71: - 29 x0,3_29 - p0 + p3 >= 0
 R72: 328 x0,3_29 - p0 + p3 <= 357
 R73: - 41 x0,3_41 - p0 + p3 >= 0
 R74: 328 x0,3_41 - p0 + p3 <= 369
 R75: - 46 x0,3_46 - p0 + p3 >= 0
 R76: 328 x0,3_46 - p0 + p3 <= 374
 R77: - 48 x0,3_48 - p0 + p3 >= 0
 R78: 328 x0,3_48 - p0 + p3 <= 376
 R79: - 70 x0,3_70 - p0 + p3 >= 0
 R80: 328 x0,3_70 - p0 + p3 <= 398
 R81: p0 - p4 <= -1
 R82: - 5 x0,4_5 - p0 + p4 >= 0
 R83: 328 x0,4_5 - p0 + p4 <= 333
 R84: - 19 x0,4_19 - p0 + p4 >= 0
 R85: 328 x0,4_19 - p0 + p4 <= 347
 R86: - 22 x0,4_22 - p0 + p4 >= 0
 R87: 328 x0,4_22 - p0 + p4 <= 350
 R88: - 24 x0,4_24 - p0 + p4 >= 0
 R89: 328 x0,4_24 - p0 + p4 <= 352
 R90: - 29 x0,4_29 - p0 + p4 >= 0
 R91: 328 x0,4_29 - p0 + p4 <= 357
 R92: - 41 x0,4_41 - p0 + p4 >= 0
 R93: 328 x0,4_41 - p0 + p4 <= 369
 R94: - 46 x0,4_46 - p0 + p4 >= 0
 R95: 328 x0,4_46 - p0 + p4 <= 374
 R96: - 48 x0,4_48 - p0 + p4 >= 0
 R97: 328 x0,4_48 - p0 + p4 <= 376
 R98: - 70 x0,4_70 - p0 + p4 >= 0
 R99: 328 x0,4_70 - p0 + p4 <= 398
 R100: p0 - p5 <= -1
 R101: - 5 x0,5_5 - p0 + p5 >= 0
 R102: 328 x0,5_5 - p0 + p5 <= 333
 R103: - 19 x0,5_19 - p0 + p5 >= 0
 R104: 328 x0,5_19 - p0 + p5 <= 347
 R105: - 22 x0,5_22 - p0 + p5 >= 0
 R106: 328 x0,5_22 - p0 + p5 <= 350
 R107: - 24 x0,5_24 - p0 + p5 >= 0
 R108: 328 x0,5_24 - p0 + p5 <= 352
 R109: - 29 x0,5_29 - p0 + p5 >= 0
 R110: 328 x0,5_29 - p0 + p5 <= 357
 R111: - 41 x0,5_41 - p0 + p5 >= 0
 R112: 328 x0,5_41 - p0 + p5 <= 369
 R113: - 46 x0,5_46 - p0 + p5 >= 0
 R114: 328 x0,5_46 - p0 + p5 <= 374
 R115: - 48 x0,5_48 - p0 + p5 >= 0
 R116: 328 x0,5_48 - p0 + p5 <= 376
 R117: - 70 x0,5_70 - p0 + p5 >= 0
 R118: 328 x0,5_70 - p0 + p5 <= 398
 R119: p1 - p2 <= -1
 R120: - 5 x1,2_5 - p1 + p2 >= 0
 R121: 328 x1,2_5 - p1 + p2 <= 333
 R122: - 19 x1,2_19 - p1 + p2 >= 0
 R123: 328 x1,2_19 - p1 + p2 <= 347
 R124: - 22 x1,2_22 - p1 + p2 >= 0
 R125: 328 x1,2_22 - p1 + p2 <= 350
 R126: - 24 x1,2_24 - p1 + p2 >= 0
 R127: 328 x1,2_24 - p1 + p2 <= 352
 R128: - 29 x1,2_29 - p1 + p2 >= 0
 R129: 328 x1,2_29 - p1 + p2 <= 357
 R130: - 41 x1,2_41 - p1 + p2 >= 0
 R131: 328 x1,2_41 - p1 + p2 <= 369
 R132: - 46 x1,2_46 - p1 + p2 >= 0
 R133: 328 x1,2_46 - p1 + p2 <= 374
 R134: - 48 x1,2_48 - p1 + p2 >= 0
 R135: 328 x1,2_48 - p1 + p2 <= 376
 R136: - 70 x1,2_70 - p1 + p2 >= 0
 R137: 328 x1,2_70 - p1 + p2 <= 398
 R138: p1 - p3 <= -1
 R139: - 5 x1,3_5 - p1 + p3 >= 0
 R140: 328 x1,3_5 - p1 + p3 <= 333
 R141: - 19 x1,3_19 - p1 + p3 >= 0
 R142: 328 x1,3_19 - p1 + p3 <= 347
 R143: - 22 x1,3_22 - p1 + p3 >= 0
 R144: 328 x1,3_22 - p1 + p3 <= 350
 R145: - 24 x1,3_24 - p1 + p3 >= 0
 R146: 328 x1,3_24 - p1 + p3 <= 352
 R147: - 29 x1,3_29 - p1 + p3 >= 0
 R148: 328 x1,3_29 - p1 + p3 <= 357
 R149: - 41 x1,3_41 - p1 + p3 >= 0
 R150: 328 x1,3_41 - p1 + p3 <= 369
 R151: - 46 x1,3_46 - p1 + p3 >= 0
 R152: 328 x1,3_46 - p1 + p3 <= 374
 R153: - 48 x1,3_48 - p1 + p3 >= 0
 R154: 328 x1,3_48 - p1 + p3 <= 376
 R155: - 70 x1,3_70 - p1 + p3 >= 0
 R156: 328 x1,3_70 - p1 + p3 <= 398
 R157: p1 - p4 <= -1
 R158: - 5 x1,4_5 - p1 + p4 >= 0
 R159: 328 x1,4_5 - p1 + p4 <= 333
 R160: - 19 x1,4_19 - p1 + p4 >= 0
 R161: 328 x1,4_19 - p1 + p4 <= 347
 R162: - 22 x1,4_22 - p1 + p4 >= 0
 R163: 328 x1,4_22 - p1 + p4 <= 350
 R164: - 24 x1,4_24 - p1 + p4 >= 0
 R165: 328 x1,4_24 - p1 + p4 <= 352
 R166: - 29 x1,4_29 - p1 + p4 >= 0
 R167: 328 x1,4_29 - p1 + p4 <= 357
 R168: - 41 x1,4_41 - p1 + p4 >= 0
 R169: 328 x1,4_41 - p1 + p4 <= 369
 R170: - 46 x1,4_46 - p1 + p4 >= 0
 R171: 328 x1,4_46 - p1 + p4 <= 374
 R172: - 48 x1,4_48 - p1 + p4 >= 0
 R173: 328 x1,4_48 - p1 + p4 <= 376
 R174: - 70 x1,4_70 - p1 + p4 >= 0
 R175: 328 x1,4_70 - p1 + p4 <= 398
 R176: p1 - p5 <= -1
 R177: - 5 x1,5_5 - p1 + p5 >= 0
 R178: 328 x1,5_5 - p1 + p5 <= 333
 R179: - 19 x1,5_19 - p1 + p5 >= 0
 R180: 328 x1,5_19 - p1 + p5 <= 347
 R181: - 22 x1,5_22 - p1 + p5 >= 0
 R182: 328 x1,5_22 - p1 + p5 <= 350
 R183: - 24 x1,5_24 - p1 + p5 >= 0
 R184: 328 x1,5_24 - p1 + p5 <= 352
 R185: - 29 x1,5_29 - p1 + p5 >= 0
 R186: 328 x1,5_29 - p1 + p5 <= 357
 R187: - 41 x1,5_41 - p1 + p5 >= 0
 R188: 328 x1,5_41 - p1 + p5 <= 369
 R189: - 46 x1,5_46 - p1 + p5 >= 0
 R190: 328 x1,5_46 - p1 + p5 <= 374
 R191: - 48 x1,5_48 - p1 + p5 >= 0
 R192: 328 x1,5_48 - p1 + p5 <= 376
 R193: - 70 x1,5_70 - p1 + p5 >= 0
 R194: 328 x1,5_70 - p1 + p5 <= 398
 R195: p2 - p3 <= -1
 R196: - 5 x2,3_5 - p2 + p3 >= 0
 R197: 328 x2,3_5 - p2 + p3 <= 333
 R198: - 19 x2,3_19 - p2 + p3 >= 0
 R199: 328 x2,3_19 - p2 + p3 <= 347
 R200: - 22 x2,3_22 - p2 + p3 >= 0
 R201: 328 x2,3_22 - p2 + p3 <= 350
 R202: - 24 x2,3_24 - p2 + p3 >= 0
 R203: 328 x2,3_24 - p2 + p3 <= 352
 R204: - 29 x2,3_29 - p2 + p3 >= 0
 R205: 328 x2,3_29 - p2 + p3 <= 357
 R206: - 41 x2,3_41 - p2 + p3 >= 0
 R207: 328 x2,3_41 - p2 + p3 <= 369
 R208: - 46 x2,3_46 - p2 + p3 >= 0
 R209: 328 x2,3_46 - p2 + p3 <= 374
 R210: - 48 x2,3_48 - p2 + p3 >= 0
 R211: 328 x2,3_48 - p2 + p3 <= 376
 R212: - 70 x2,3_70 - p2 + p3 >= 0
 R213: 328 x2,3_70 - p2 + p3 <= 398
 R214: p2 - p4 <= -1
 R215: - 5 x2,4_5 - p2 + p4 >= 0
 R216: 328 x2,4_5 - p2 + p4 <= 333
 R217: - 19 x2,4_19 - p2 + p4 >= 0
 R218: 328 x2,4_19 - p2 + p4 <= 347
 R219: - 22 x2,4_22 - p2 + p4 >= 0
 R220: 328 x2,4_22 - p2 + p4 <= 350
 R221: - 24 x2,4_24 - p2 + p4 >= 0
 R222: 328 x2,4_24 - p2 + p4 <= 352
 R223: - 29 x2,4_29 - p2 + p4 >= 0
 R224: 328 x2,4_29 - p2 + p4 <= 357
 R225: - 41 x2,4_41 - p2 + p4 >= 0
 R226: 328 x2,4_41 - p2 + p4 <= 369
 R227: - 46 x2,4_46 - p2 + p4 >= 0
 R228: 328 x2,4_46 - p2 + p4 <= 374
 R229: - 48 x2,4_48 - p2 + p4 >= 0
 R230: 328 x2,4_48 - p2 + p4 <= 376
 R231: - 70 x2,4_70 - p2 + p4 >= 0
 R232: 328 x2,4_70 - p2 + p4 <= 398
 R233: p2 - p5 <= -1
 R234: - 5 x2,5_5 - p2 + p5 >= 0
 R235: 328 x2,5_5 - p2 + p5 <= 333
 R236: - 19 x2,5_19 - p2 + p5 >= 0
 R237: 328 x2,5_19 - p2 + p5 <= 347
 R238: - 22 x2,5_22 - p2 + p5 >= 0
 R239: 328 x2,5_22 - p2 + p5 <= 350
 R240: - 24 x2,5_24 - p2 + p5 >= 0
 R241: 328 x2,5_24 - p2 + p5 <= 352
 R242: - 29 x2,5_29 - p2 + p5 >= 0
 R243: 328 x2,5_29 - p2 + p5 <= 357
 R244: - 41 x2,5_41 - p2 + p5 >= 0
 R245: 328 x2,5_41 - p2 + p5 <= 369
 R246: - 46 x2,5_46 - p2 + p5 >= 0
 R247: 328 x2,5_46 - p2 + p5 <= 374
 R248: - 48 x2,5_48 - p2 + p5 >= 0
 R249: 328 x2,5_48 - p2 + p5 <= 376
 R250: - 70 x2,5_70 - p2 + p5 >= 0
 R251: 328 x2,5_70 - p2 + p5 <= 398
 R252: p3 - p4 <= -1
 R253: - 5 x3,4_5 - p3 + p4 >= 0
 R254: 328 x3,4_5 - p3 + p4 <= 333
 R255: - 19 x3,4_19 - p3 + p4 >= 0
 R256: 328 x3,4_19 - p3 + p4 <= 347
 R257: - 22 x3,4_22 - p3 + p4 >= 0
 R258: 328 x3,4_22 - p3 + p4 <= 350
 R259: - 24 x3,4_24 - p3 + p4 >= 0
 R260: 328 x3,4_24 - p3 + p4 <= 352
 R261: - 29 x3,4_29 - p3 + p4 >= 0
 R262: 328 x3,4_29 - p3 + p4 <= 357
 R263: - 41 x3,4_41 - p3 + p4 >= 0
 R264: 328 x3,4_41 - p3 + p4 <= 369
 R265: - 46 x3,4_46 - p3 + p4 >= 0
 R266: 328 x3,4_46 - p3 + p4 <= 374
 R267: - 48 x3,4_48 - p3 + p4 >= 0
 R268: 328 x3,4_48 - p3 + p4 <= 376
 R269: - 70 x3,4_70 - p3 + p4 >= 0
 R270: 328 x3,4_70 - p3 + p4 <= 398
 R271: p3 - p5 <= -1
 R272: - 5 x3,5_5 - p3 + p5 >= 0
 R273: 328 x3,5_5 - p3 + p5 <= 333
 R274: - 19 x3,5_19 - p3 + p5 >= 0
 R275: 328 x3,5_19 - p3 + p5 <= 347
 R276: - 22 x3,5_22 - p3 + p5 >= 0
 R277: 328 x3,5_22 - p3 + p5 <= 350
 R278: - 24 x3,5_24 - p3 + p5 >= 0
 R279: 328 x3,5_24 - p3 + p5 <= 352
 R280: - 29 x3,5_29 - p3 + p5 >= 0
 R281: 328 x3,5_29 - p3 + p5 <= 357
 R282: - 41 x3,5_41 - p3 + p5 >= 0
 R283: 328 x3,5_41 - p3 + p5 <= 369
 R284: - 46 x3,5_46 - p3 + p5 >= 0
 R285: 328 x3,5_46 - p3 + p5 <= 374
 R286: - 48 x3,5_48 - p3 + p5 >= 0
 R287: 328 x3,5_48 - p3 + p5 <= 376
 R288: - 70 x3,5_70 - p3 + p5 >= 0
 R289: 328 x3,5_70 - p3 + p5 <= 398
 R290: p4 - p5 <= -1
 R291: - 5 x4,5_5 - p4 + p5 >= 0
 R292: 328 x4,5_5 - p4 + p5 <= 333
 R293: - 19 x4,5_19 - p4 + p5 >= 0
 R294: 328 x4,5_19 - p4 + p5 <= 347
 R295: - 22 x4,5_22 - p4 + p5 >= 0
 R296: 328 x4,5_22 - p4 + p5 <= 350
 R297: - 24 x4,5_24 - p4 + p5 >= 0
 R298: 328 x4,5_24 - p4 + p5 <= 352
 R299: - 29 x4,5_29 - p4 + p5 >= 0
 R300: 328 x4,5_29 - p4 + p5 <= 357
 R301: - 41 x4,5_41 - p4 + p5 >= 0
 R302: 328 x4,5_41 - p4 + p5 <= 369
 R303: - 46 x4,5_46 - p4 + p5 >= 0
 R304: 328 x4,5_46 - p4 + p5 <= 374
 R305: - 48 x4,5_48 - p4 + p5 >= 0
 R306: 328 x4,5_48 - p4 + p5 <= 376
 R307: - 70 x4,5_70 - p4 + p5 >= 0
 R308: 328 x4,5_70 - p4 + p5 <= 398
Bounds
Binaries
 x0,1_5 x0,1_19 x0,1_22 x0,1_24 x0,1_29 x0,1_41 x0,1_46 x0,1_48 x0,1_70
 x0,2_5 x0,2_19 x0,2_22 x0,2_24 x0,2_29 x0,2_41 x0,2_46 x0,2_48 x0,2_70
 x0,3_5 x0,3_19 x0,3_22 x0,3_24 x0,3_29 x0,3_41 x0,3_46 x0,3_48 x0,3_70
 x0,4_5 x0,4_19 x0,4_22 x0,4_24 x0,4_29 x0,4_41 x0,4_46 x0,4_48 x0,4_70
 x0,5_5 x0,5_19 x0,5_22 x0,5_24 x0,5_29 x0,5_41 x0,5_46 x0,5_48 x0,5_70
 x1,2_5 x1,2_19 x1,2_22 x1,2_24 x1,2_29 x1,2_41 x1,2_46 x1,2_48 x1,2_70
 x1,3_5 x1,3_19 x1,3_22 x1,3_24 x1,3_29 x1,3_41 x1,3_46 x1,3_48 x1,3_70
 x1,4_5 x1,4_19 x1,4_22 x1,4_24 x1,4_29 x1,4_41 x1,4_46 x1,4_48 x1,4_70
 x1,5_5 x1,5_19 x1,5_22 x1,5_24 x1,5_29 x1,5_41 x1,5_46 x1,5_48 x1,5_70
 x2,3_5 x2,3_19 x2,3_22 x2,3_24 x2,3_29 x2,3_41 x2,3_46 x2,3_48 x2,3_70
 x2,4_5 x2,4_19 x2,4_22 x2,4_24 x2,4_29 x2,4_41 x2,4_46 x2,4_48 x2,4_70
 x2,5_5 x2,5_19 x2,5_22 x2,5_24 x2,5_29 x2,5_41 x2,5_46 x2,5_48 x2,5_70
 x3,4_5 x3,4_19 x3,4_22 x3,4_24 x3,4_29 x3,4_41 x3,4_46 x3,4_48 x3,4_70
 x3,5_5 x3,5_19 x3,5_22 x3,5_24 x3,5_29 x3,5_41 x3,5_46 x3,5_48 x3,5_70
 x4,5_5 x4,5_19 x4,5_22 x4,5_24 x4,5_29 x4,5_41 x4,5_46 x4,5_48 x4,5_70
Generals
 p0 p1 p2 p3 p4 p5
End
