logs/full/max/full-05-30-1.sol
# Objective value = 10
x0,1_5 0
x0,1_19 0
x0,1_22 0
x0,1_24 0
x0,1_29 1
x0,1_41 0
x0,1_46 0
x0,1_48 0
x0,1_70 0
x0,2_5 0
x0,2_19 0
x0,2_22 0
x0,2_24 0
x0,2_29 0
x0,2_41 0
x0,2_46 1
x0,2_48 0
x0,2_70 0
x0,3_5 0
x0,3_19 0
x0,3_22 0
x0,3_24 0
x0,3_29 0
x0,3_41 0
x0,3_46 0
x0,3_48 0
x0,3_70 0
x0,4_5 0
x0,4_19 0
x0,4_22 0
x0,4_24 0
x0,4_29 0
x0,4_41 0
x0,4_46 0
x0,4_48 0
x0,4_70 1
x0,5_5 0
x0,5_19 0
x0,5_22 0
x0,5_24 0
x0,5_29 0
x0,5_41 0
x0,5_46 0
x0,5_48 0
x0,5_70 0
x1,2_5 0
x1,2_19 0
x1,2_22 0
x1,2_24 0
x1,2_29 0
x1,2_41 0
x1,2_46 0
x1,2_48 0
x1,2_70 0
x1,3_5 0
x1,3_19 0
x1,3_22 1
x1,3_24 0
x1,3_29 0
x1,3_41 0
x1,3_46 0
x1,3_48 0
x1,3_70 0
x1,4_5 0
x1,4_19 0
x1,4_22 0
x1,4_24 0
x1,4_29 0
x1,4_41 1
x1,4_46 0
x1,4_48 0
x1,4_70 0
x1,5_5 0
x1,5_19 0
x1,5_22 0
x1,5_24 0
x1,5_29 0
x1,5_41 0
x1,5_46 0
x1,5_48 0
x1,5_70 0
x2,3_5 1
x2,3_19 0
x2,3_22 0
x2,3_24 0
x2,3_29 0
x2,3_41 0
x2,3_46 0
x2,3_48 0
x2,3_70 0
x2,4_5 0
x2,4_19 0
x2,4_22 0
x2,4_24 1
x2,4_29 0
x2,4_41 0
x2,4_46 0
x2,4_48 0
x2,4_70 0
x2,5_5 0
x2,5_19 0
x2,5_22 0
x2,5_24 0
x2,5_29 0
x2,5_41 0
x2,5_46 0
x2,5_48 1
x2,5_70 0
x3,4_5 0
x3,4_19 1
x3,4_22 0
x3,4_24 0
x3,4_29 0
x3,4_41 0
x3,4_46 0
x3,4_48 0
x3,4_70 0
x3,5_5 0
x3,5_19 0
x3,5_22 0
x3,5_24 0
x3,5_29 0
x3,5_41 0
x3,5_46 0
x3,5_48 0
x3,5_70 0
x4,5_5 0
x4,5_19 0
x4,5_22 0
x4,5_24 1
x4,5_29 0
x4,5_41 0
x4,5_46 0
x4,5_48 0
x4,5_70 0
p0 0
p1 29
p2 46
p3 51
p4 70
p5 94
